NAME: random-38-2675
TYPE: TSP
COMMENT: size=38 seed=2675
DIMENSION: 78
EDGE_WEIGHT_TYPE: EUC_2D
NODE_COORD_SECTION
+0 725 978
-0 725 978
+1 775 105
-1 325 345
+2 426 75
-2 825 692
+3 466 826
-3 704 373
+4 360 135
-4 825 934
+5 473 536
-5 550 239
+6 839 152
-6 663 47
+7 336 0
-7 30 964
+8 406 703
-8 807 209
+9 101 694
-9 628 56
+10 705 284
-10 624 95
+11 301 357
-11 117 623
+12 287 926
-12 325 56
+13 408 655
-13 133 835
+14 953 853
-14 246 711
+15 257 747
-15 68 309
+16 242 88
-16 458 826
+17 755 316
-17 817 706
+18 198 507
-18 76 876
+19 26 749
-19 936 755
+20 167 705
-20 401 48
+21 641 77
-21 932 520
+22 994 878
-22 819 132
+23 989 19
-23 693 889
+24 306 78
-24 810 383
+25 436 78
-25 29 281
+26 558 387
-26 13 39
+27 887 749
-27 990 278
+28 374 971
-28 488 106
+29 581 182
-29 983 944
+30 279 77
-30 774 524
+31 688 394
-31 599 23
+32 549 47
-32 166 7
+33 256 266
-33 21 236
+34 733 682
-34 135 308
+35 284 840
-35 61 263
+36 190 79
-36 787 708
+37 47 68
-37 173 360
+38 86 827
-38 559 624
PRECEDENCE_SECTION
+0 -0
+1 -1
+2 -2
+3 -3
+4 -4
+5 -5
+6 -6
+7 -7
+8 -8
+9 -9
+10 -10
+11 -11
+12 -12
+13 -13
+14 -14
+15 -15
+16 -16
+17 -17
+18 -18
+19 -19
+20 -20
+21 -21
+22 -22
+23 -23
+24 -24
+25 -25
+26 -26
+27 -27
+28 -28
+29 -29
+30 -30
+31 -31
+32 -32
+33 -33
+34 -34
+35 -35
+36 -36
+37 -37
+38 -38
EOF
